(set-logic ALL)
(declare-const BAV1 Bool)
(declare-const BAV2 Bool)
(declare-const BAV3 Bool)
(declare-const BAV4 Bool)
(declare-const BAV5 Bool)
(declare-const BAV6 Bool)
(declare-const BAV7 Bool)
(declare-const GEN2 Real)
(declare-const GEN1 Int)
(declare-fun x1 () Real)
(declare-fun x2 () Real)
(declare-fun x3 () Real)
(declare-fun x4 () Real)
(declare-fun x5 () Real)
(declare-fun a1 () Bool)
(declare-fun a3 () Bool)
(declare-fun a4 () Bool)
(declare-fun a5 () Bool)
(declare-fun a6 () Bool)
(assert (= a1 (not (= (sin (arcsin x1)) x1))))
(assert (= a3 (< (arccos x3) GEN1)))
(assert (= a4 (> (arctan x4) GEN2)))
(assert (or a1 a3 a4))
(assert (= BAV1 (= a1 (not (= (sin (arcsin x1)) x1)))))
(assert (= BAV2 (= (sin (arcsin x1)) x1)))
(assert (= BAV3 (= a3 (< (arccos x3) GEN1))))
(assert (= BAV4 (< (arccos x3) GEN1)))
(assert (= BAV5 (= a4 (> (arctan x4) GEN2))))
(assert (= BAV6 (> (arctan x4) GEN2)))
(assert (= BAV7 (or a1 a3 a4)))
(check-sat)
(get-model)